NAME : xql662
COMMENT : Bonn VLSI data set with 662 points
COMMENT : Uni Bonn, Research Institute for Discrete Math
COMMENT : Contributed by Andre Rohe
TYPE : TSP
DIMENSION : 662
EDGE_WEIGHT_TYPE : EUC_2D
NODE_COORD_SECTION
  1 288 149
  2 270 133
  3 288 129
  4 256 141
  5 256 157
EOF
